benchmarks_CP/INST_36x36/30/inst36x36_30_68.dzn
S=6;
start=[|
-1,	30,	-1,	-1,	-1,	32,	6,	-1,	27,	-1,	3,	-1,	-1,	-1,	-1,	-1,	21,	17,	-1,	-1,	-1,	-1,	-1,	-1,	10,	18,	-1,	7,	-1,	22,	14,	-1,	-1,	-1,	-1,	31|
-1,	-1,	-1,	-1,	15,	-1,	-1,	-1,	14,	-1,	-1,	-1,	-1,	-1,	3,	-1,	1,	2,	-1,	35,	-1,	-1,	-1,	-1,	4,	19,	-1,	-1,	20,	-1,	13,	-1,	-1,	33,	28,	-1|
-1,	-1,	-1,	10,	-1,	-1,	-1,	-1,	22,	-1,	-1,	-1,	-1,	-1,	14,	6,	-1,	15,	-1,	-1,	-1,	-1,	-1,	-1,	-1,	-1,	-1,	-1,	-1,	-1,	-1,	35,	-1,	-1,	-1,	-1|
-1,	-1,	-1,	11,	14,	2,	-1,	-1,	9,	-1,	-1,	4,	-1,	-1,	26,	-1,	-1,	-1,	1,	-1,	-1,	13,	-1,	-1,	-1,	34,	-1,	-1,	-1,	-1,	-1,	24,	20,	-1,	-1,	-1|
25,	29,	-1,	-1,	-1,	28,	8,	-1,	-1,	21,	24,	-1,	27,	-1,	-1,	5,	-1,	-1,	-1,	3,	7,	-1,	-1,	-1,	-1,	-1,	-1,	-1,	-1,	33,	-1,	-1,	-1,	-1,	-1,	-1|
22,	-1,	-1,	-1,	-1,	-1,	-1,	-1,	-1,	-1,	-1,	-1,	-1,	23,	-1,	-1,	-1,	-1,	-1,	-1,	-1,	-1,	2,	-1,	-1,	11,	-1,	29,	-1,	-1,	4,	-1,	-1,	-1,	-1,	27|
-1,	-1,	35,	34,	-1,	23,	-1,	-1,	-1,	-1,	28,	-1,	9,	5,	-1,	-1,	-1,	-1,	-1,	-1,	-1,	-1,	32,	-1,	-1,	-1,	-1,	-1,	-1,	36,	17,	26,	-1,	-1,	30,	14|
-1,	18,	-1,	4,	-1,	-1,	-1,	27,	-1,	-1,	-1,	-1,	-1,	32,	19,	-1,	6,	-1,	-1,	-1,	-1,	-1,	31,	-1,	-1,	20,	-1,	-1,	-1,	-1,	-1,	-1,	-1,	-1,	35,	-1|
6,	-1,	32,	-1,	-1,	11,	-1,	2,	-1,	-1,	-1,	-1,	8,	17,	25,	-1,	16,	-1,	19,	-1,	5,	35,	-1,	-1,	-1,	-1,	-1,	34,	23,	-1,	-1,	-1,	-1,	-1,	-1,	-1|
-1,	-1,	-1,	-1,	-1,	-1,	-1,	-1,	-1,	-1,	-1,	9,	18,	-1,	23,	-1,	29,	-1,	34,	-1,	22,	36,	-1,	-1,	-1,	4,	-1,	2,	-1,	-1,	32,	-1,	-1,	-1,	-1,	-1|
-1,	-1,	-1,	-1,	-1,	22,	26,	21,	-1,	-1,	-1,	-1,	-1,	4,	2,	-1,	-1,	-1,	17,	6,	24,	-1,	-1,	-1,	-1,	14,	-1,	8,	-1,	10,	18,	34,	36,	-1,	16,	-1|
-1,	-1,	17,	-1,	20,	-1,	-1,	19,	34,	-1,	-1,	35,	-1,	-1,	-1,	-1,	-1,	-1,	29,	-1,	27,	-1,	10,	-1,	-1,	-1,	-1,	-1,	18,	11,	-1,	-1,	-1,	-1,	12,	-1|
15,	-1,	-1,	19,	-1,	-1,	-1,	-1,	-1,	8,	-1,	-1,	-1,	14,	-1,	18,	31,	-1,	-1,	-1,	-1,	-1,	-1,	-1,	-1,	-1,	-1,	-1,	6,	25,	-1,	-1,	-1,	-1,	3,	-1|
21,	-1,	-1,	-1,	-1,	-1,	36,	-1,	13,	-1,	-1,	-1,	17,	-1,	-1,	-1,	-1,	20,	-1,	-1,	9,	-1,	-1,	11,	-1,	-1,	-1,	19,	-1,	-1,	33,	-1,	32,	-1,	-1,	-1|
-1,	1,	34,	-1,	-1,	-1,	-1,	-1,	-1,	12,	9,	-1,	29,	-1,	7,	-1,	-1,	-1,	-1,	-1,	-1,	20,	-1,	-1,	-1,	-1,	32,	-1,	-1,	-1,	-1,	-1,	10,	-1,	-1,	-1|
-1,	-1,	-1,	-1,	-1,	12,	19,	-1,	-1,	-1,	30,	-1,	-1,	-1,	-1,	36,	34,	28,	-1,	-1,	-1,	8,	14,	-1,	-1,	-1,	-1,	-1,	-1,	1,	24,	-1,	-1,	-1,	13,	7|
-1,	3,	-1,	28,	-1,	-1,	4,	-1,	-1,	-1,	-1,	-1,	23,	-1,	24,	-1,	-1,	-1,	-1,	-1,	-1,	-1,	-1,	-1,	-1,	-1,	-1,	18,	-1,	-1,	-1,	-1,	11,	19,	15,	26|
-1,	-1,	-1,	-1,	-1,	-1,	-1,	-1,	-1,	-1,	-1,	-1,	16,	-1,	-1,	-1,	32,	26,	-1,	-1,	-1,	18,	-1,	-1,	8,	33,	-1,	4,	-1,	13,	-1,	17,	22,	-1,	-1,	9|
36,	-1,	-1,	-1,	-1,	-1,	-1,	-1,	7,	35,	21,	-1,	24,	-1,	-1,	20,	-1,	5,	-1,	-1,	-1,	-1,	-1,	-1,	-1,	-1,	-1,	-1,	-1,	-1,	-1,	13,	-1,	-1,	-1,	-1|
-1,	-1,	13,	-1,	-1,	10,	-1,	28,	-1,	-1,	26,	-1,	3,	-1,	-1,	-1,	-1,	-1,	5,	-1,	-1,	-1,	17,	-1,	31,	-1,	35,	-1,	-1,	20,	-1,	-1,	-1,	32,	-1,	-1|
-1,	4,	-1,	-1,	-1,	-1,	-1,	-1,	5,	15,	13,	-1,	10,	-1,	-1,	-1,	27,	-1,	-1,	-1,	-1,	23,	-1,	-1,	11,	-1,	26,	33,	-1,	-1,	-1,	-1,	-1,	-1,	-1,	6|
-1,	26,	-1,	30,	28,	-1,	27,	-1,	-1,	-1,	-1,	-1,	-1,	-1,	-1,	-1,	-1,	32,	-1,	-1,	-1,	-1,	-1,	-1,	-1,	3,	-1,	-1,	-1,	8,	-1,	-1,	-1,	12,	10,	-1|
-1,	-1,	5,	27,	21,	-1,	33,	30,	-1,	-1,	-1,	-1,	26,	-1,	-1,	-1,	35,	-1,	-1,	13,	2,	-1,	-1,	-1,	-1,	6,	18,	15,	-1,	-1,	-1,	1,	-1,	-1,	-1,	-1|
-1,	-1,	-1,	-1,	8,	-1,	-1,	6,	24,	-1,	-1,	-1,	-1,	-1,	-1,	-1,	-1,	-1,	27,	-1,	-1,	-1,	-1,	-1,	-1,	16,	14,	-1,	-1,	-1,	-1,	20,	5,	-1,	-1,	36|
-1,	15,	-1,	8,	-1,	-1,	-1,	-1,	-1,	27,	7,	-1,	5,	-1,	30,	-1,	-1,	-1,	-1,	-1,	-1,	-1,	-1,	12,	19,	-1,	-1,	17,	-1,	-1,	-1,	-1,	13,	-1,	-1,	-1|
-1,	-1,	-1,	-1,	-1,	33,	-1,	13,	15,	32,	-1,	-1,	21,	-1,	6,	-1,	-1,	-1,	23,	5,	-1,	-1,	-1,	-1,	-1,	-1,	-1,	-1,	36,	-1,	8,	-1,	7,	-1,	-1,	-1|
-1,	10,	9,	-1,	-1,	29,	-1,	-1,	-1,	-1,	-1,	21,	4,	26,	-1,	-1,	-1,	23,	11,	31,	-1,	30,	-1,	19,	-1,	-1,	27,	-1,	22,	-1,	12,	-1,	18,	5,	-1,	-1|
-1,	-1,	4,	-1,	-1,	16,	-1,	-1,	-1,	24,	36,	8,	-1,	34,	-1,	-1,	14,	-1,	2,	-1,	-1,	-1,	-1,	-1,	-1,	23,	-1,	-1,	-1,	-1,	-1,	28,	-1,	-1,	-1,	-1|
26,	-1,	-1,	-1,	-1,	5,	-1,	-1,	-1,	9,	22,	29,	-1,	-1,	-1,	-1,	19,	12,	-1,	-1,	-1,	-1,	-1,	-1,	-1,	13,	-1,	-1,	-1,	-1,	20,	14,	-1,	-1,	-1,	-1|
14,	-1,	27,	32,	-1,	-1,	-1,	26,	-1,	1,	-1,	5,	-1,	-1,	29,	-1,	-1,	-1,	-1,	-1,	-1,	34,	-1,	-1,	-1,	8,	-1,	-1,	-1,	15,	2,	23,	35,	-1,	-1,	17|
-1,	-1,	3,	-1,	-1,	-1,	-1,	-1,	-1,	-1,	-1,	-1,	-1,	-1,	-1,	22,	-1,	-1,	-1,	-1,	-1,	17,	9,	13,	-1,	-1,	25,	-1,	-1,	-1,	-1,	31,	-1,	-1,	-1,	32|
-1,	-1,	-1,	9,	-1,	6,	-1,	-1,	-1,	-1,	18,	-1,	20,	33,	-1,	15,	3,	4,	-1,	-1,	-1,	-1,	-1,	-1,	-1,	24,	-1,	1,	-1,	-1,	-1,	29,	14,	-1,	-1,	8|
-1,	-1,	1,	-1,	-1,	-1,	-1,	-1,	11,	-1,	27,	26,	-1,	29,	-1,	-1,	8,	-1,	24,	-1,	-1,	-1,	-1,	-1,	-1,	-1,	-1,	10,	-1,	-1,	-1,	4,	-1,	15,	2,	-1|
32,	-1,	25,	-1,	-1,	-1,	-1,	23,	-1,	-1,	8,	-1,	35,	-1,	31,	-1,	11,	-1,	-1,	-1,	-1,	-1,	-1,	-1,	-1,	15,	-1,	-1,	-1,	-1,	-1,	-1,	3,	17,	-1,	-1|
-1,	-1,	8,	31,	24,	-1,	-1,	-1,	-1,	7,	-1,	-1,	14,	-1,	-1,	-1,	-1,	-1,	-1,	34,	15,	-1,	-1,	21,	33,	-1,	-1,	-1,	-1,	29,	-1,	-1,	-1,	-1,	-1,	11|
-1,	20,	-1,	-1,	-1,	-1,	-1,	-1,	2,	-1,	-1,	-1,	-1,	10,	-1,	17,	5,	-1,	3,	-1,	-1,	-1,	-1,	-1,	28,	32,	-1,	-1,	19,	-1,	-1,	-1,	-1,	13,	22,	24|];
